8 32
12 2 1 46.8 2 46.8 3 24 2.7 25 2.7 26 2.7 3 3 94.4 4 94.4 5 94.4 3 24 2.7 25 2.7 26 2.7 2 1 34.4 2 34.4 3 24 4.0 25 4.0 26 4.0 1 32 1.5 2 27 3.4 28 3.4 4 7 217.2 8 217.2 9 217.2 10 217.2 2 27 3.4 28 3.4 1 32 2.0 2 30 3.0 31 6.0 
32 2 1 54.0 2 54.0 3 24 2.7 25 2.7 26 2.7 3 3 74.0 4 74.0 5 74.0 3 24 4.2 25 4.2 26 4.2 1 6 26.8 3 24 2.9 25 2.9 26 2.9 1 32 1.5 2 27 3.4 28 3.4 4 7 225.6 8 225.6 9 225.6 10 225.6 2 27 3.4 28 3.4 1 32 1.5 3 24 4.0 25 4.0 26 4.0 2 1 33.6 2 33.6 3 24 4.0 25 4.0 26 4.0 1 32 2.0 2 29 4.1 30 4.1 1 12 68.8 2 29 4.1 30 4.1 1 32 1.5 2 27 3.2 28 3.2 1 16 107.2 2 27 3.2 28 3.2 1 17 220.0 2 27 2.2 28 2.2 1 32 1.5 2 29 2.4 30 2.4 1 18 112.0 2 29 3.1 30 3.1 1 19 44.8 2 29 3.2 30 3.2 1 32 1.5 1 31 3.6 
30 2 1 54.4 2 54.4 3 24 2.7 25 2.7 26 2.7 3 3 109.6 4 109.6 5 109.6 3 24 4.2 25 4.2 26 4.2 1 6 28.8 3 24 2.9 25 2.9 26 2.9 1 32 1.5 2 27 3.4 28 3.4 4 7 220.8 8 220.8 9 220.8 10 220.8 2 27 3.4 28 3.4 1 32 1.5 3 24 4.0 25 4.0 26 4.0 2 1 36.8 2 36.8 3 24 4.0 25 4.0 26 4.0 1 32 2.0 2 29 4.1 30 4.1 1 12 72.8 2 29 4.1 30 4.1 1 32 1.5 2 27 3.2 28 3.2 1 16 112.0 2 27 3.7 28 3.7 1 15 232.8 2 27 3.8 28 3.8 1 32 1.5 2 29 3.2 30 3.2 1 19 44.8 2 29 3.2 30 3.2 1 32 1.5 1 31 3.6 
24 2 1 54.4 2 54.4 3 24 2.7 25 2.7 26 2.7 3 3 61.6 4 61.6 5 61.6 3 24 4.2 25 4.2 26 4.2 1 6 26.0 3 24 2.9 25 2.9 26 2.9 1 32 1.5 2 27 3.4 28 3.4 4 7 214.8 8 214.8 9 214.8 10 214.8 2 27 3.4 28 3.4 1 32 1.5 3 24 4.0 25 4.0 26 4.0 2 1 34.4 2 34.4 3 24 4.0 25 4.0 26 4.0 1 32 1.5 2 27 4.1 28 4.1 1 14 220.8 2 27 4.1 28 4.1 1 32 1.5 2 29 3.2 30 3.2 1 19 44.8 2 29 3.2 30 3.2 1 32 1.5 1 31 3.6 
29 2 1 50.0 2 50.0 3 24 2.7 25 2.7 26 2.7 3 3 60.0 4 60.0 5 60.0 3 24 3.8 25 3.8 26 3.8 1 11 54.0 3 24 2.4 25 2.4 26 2.4 1 6 29.6 3 24 2.9 25 2.9 26 2.9 1 32 2.0 2 29 2.8 30 2.8 1 20 74.4 2 29 2.8 30 2.8 1 32 2.0 2 27 3.2 28 3.2 1 23 216.8 2 27 3.2 28 3.2 1 32 1.5 2 29 4.1 30 4.1 1 12 74.4 2 29 2.1 30 2.1 2 29 0.0 30 0.0 1 21 216.8 2 29 3.7 30 3.7 1 32 2.0 3 24 4.0 25 4.0 26 4.0 2 1 34.4 2 34.4 3 24 4.0 25 4.0 26 4.0 1 32 2.5 1 31 3.6 
16 2 1 51.6 2 51.6 3 24 2.7 25 2.7 26 2.7 3 3 83.6 4 83.6 5 83.6 3 24 3.8 25 3.8 26 3.8 1 11 58.8 3 24 2.4 25 2.4 26 2.4 1 6 28.8 3 24 2.9 25 2.9 26 2.9 1 32 2.0 2 29 5.3 30 5.3 1 13 220.8 2 29 3.7 30 3.7 1 18 108.0 2 29 2.4 30 2.4 1 32 1.5 1 31 3.6 
30 2 1 24.4 2 24.4 3 24 2.7 25 2.7 26 2.7 3 3 102.4 4 102.4 5 102.4 3 24 3.8 25 3.8 26 3.8 1 11 59.2 3 24 2.4 25 2.4 26 2.4 1 6 26.4 3 24 2.9 25 2.9 26 2.9 1 32 2.0 2 29 2.8 30 2.8 1 20 68.8 2 29 2.8 30 2.8 1 32 1.5 2 27 3.5 28 3.5 1 22 112.0 2 27 3.5 28 3.5 1 32 1.5 3 24 2.9 25 2.9 26 2.9 1 6 28.0 3 24 3.2 25 3.2 26 3.2 1 32 1.5 2 27 3.5 28 3.5 1 22 109.2 2 27 3.5 28 3.5 1 32 1.5 2 29 3.2 30 3.2 1 19 44.8 2 29 3.2 30 3.2 1 32 1.5 1 31 3.6 
16 2 1 30.0 2 30.0 3 24 2.7 25 2.7 26 2.7 3 3 83.6 4 83.6 5 83.6 3 24 3.8 25 3.8 26 3.8 1 11 55.2 3 24 2.4 25 2.4 26 2.4 1 6 25.2 3 24 2.9 25 2.9 26 2.9 1 32 2.0 2 29 2.8 30 2.8 1 20 74.4 2 29 3.4 30 3.4 1 19 44.8 2 29 3.2 30 3.2 1 32 1.5 1 31 3.6 
